50
hBN_5x5_Sustitucion_C_B
B 0.002085 0.005195 10.000021
B -1.250007 2.170194 10.000021
B -2.498906 4.337037 10.000021
B -3.756670 6.505594 10.000021
B -5.009889 8.676233 10.000021
B 2.504441 0.001768 10.000021
B 1.261866 2.179499 10.000021
B 0.013987 4.340887 10.000021
B -1.250702 6.505865 10.000021
B -2.503451 8.676233 10.000021
B 5.006809 0.005195 10.000021
B 3.747028 2.179499 10.000021
B 1.256569 6.493101 10.000021
B 0.003456 8.671255 10.000021
B 7.513466 0.000000 10.000021
B 6.258901 2.170194 10.000021
B 4.994906 4.340887 10.000021
B 3.752325 6.493101 10.000021
B 2.504447 8.673099 10.000021
B 10.017725 0.000000 10.000021
B 8.765564 2.168806 10.000021
B 7.507799 4.337037 10.000021
B 6.259583 6.505865 10.000021
B 5.005437 8.671255 10.000021
N 0.006261 1.457576 10.000021
N -1.239019 3.614464 10.000021
N -2.503470 5.782521 10.000021
N -3.756664 7.952683 10.000021
N -5.009488 10.123072 10.000021
N 2.504447 1.445864 10.000021
N 1.286077 3.634396 10.000021
N -0.000069 5.783812 10.000021
N -1.250652 7.952466 10.000021
N -2.503852 10.123072 10.000021
N 5.002632 1.457576 10.000021
N 3.722829 3.634396 10.000021
N 2.504453 5.744685 10.000021
N 1.259167 7.941448 10.000021
N -0.000182 10.121489 10.000021
N 7.512088 1.446666 10.000021
N 6.247912 3.614464 10.000021
N 5.008962 5.783812 10.000021
N 3.749727 7.941448 10.000021
N 2.504453 10.120144 10.000021
N 10.019052 1.446666 10.000021
N 8.765570 3.615071 10.000021
N 7.512364 5.782521 10.000021
N 6.259545 7.952466 10.000021
N 5.009088 10.121489 10.000021
C 2.504447 4.337829 10.000021
