50
hBN_5x5_Sustitucion_C_N
B 0.001315 -0.000759 10.000021
B -1.252893 2.166822 10.000021
B -2.506594 4.338295 10.000021
B -3.756676 6.508273 10.000021
B -5.004611 8.678131 10.000021
B 2.504447 -0.004945 10.000021
B 1.245925 2.150023 10.000021
B -0.001772 4.336799 10.000021
B -1.271721 6.510734 10.000021
B -2.508729 8.678131 10.000021
B 5.007566 -0.000759 10.000021
B 3.762969 2.150023 10.000021
B 2.504447 4.279550 10.000021
B 1.201753 6.535883 10.000021
B -0.013211 8.690559 10.000021
B 7.511863 0.001627 10.000021
B 6.261787 2.166822 10.000021
B 5.010659 4.336810 10.000021
B 3.807141 6.535883 10.000021
B 2.504441 8.677708 10.000021
B 10.019265 0.001627 10.000021
B 8.765564 2.168915 10.000021
B 7.515488 4.338295 10.000021
B 6.280627 6.510734 10.000021
B 5.022111 8.690548 10.000021
N -0.005291 1.438066 10.000021
N -1.252868 3.614485 10.000021
N -2.513914 5.783129 10.000021
N -3.756676 7.953768 10.000021
N -5.007967 10.121066 10.000021
N 2.504447 1.436429 10.000021
N 1.242857 3.585758 10.000021
N -0.029891 5.790221 10.000021
N -1.260463 7.957444 10.000021
N -2.505386 10.121066 10.000021
N 5.014184 1.438066 10.000021
N 3.766024 3.585758 10.000021
N 1.231693 7.975348 10.000021
N -0.004176 10.130121 10.000021
N 7.514267 1.446471 10.000021
N 6.261762 3.614485 10.000021
N 5.038772 5.790221 10.000021
N 3.777188 7.975348 10.000021
N 2.504447 10.122346 10.000021
N 10.016873 1.446471 10.000021
N 8.765570 3.613791 10.000021
N 7.522807 5.783129 10.000021
N 6.269357 7.957444 10.000021
N 5.013070 10.130121 10.000021
C 2.504453 5.783769 10.000021
