50
hBN_5x5_Defecto_Dímero_CB_CN
B 0.003412 0.005346 10.000021
B -1.249387 2.170986 10.000021
B -2.500239 4.335834 10.000021
B -3.756664 6.506017 10.000021
B -5.007829 8.676027 10.000021
B 2.504453 -0.006149 10.000021
B 1.264883 2.167440 10.000021
B 0.011001 4.350788 10.000021
B -1.268759 6.508902 10.000021
B -2.505524 8.676027 10.000021
B 5.005469 0.005346 10.000021
B 3.744010 2.167440 10.000021
B 1.223403 6.500725 10.000021
B -0.002285 8.678944 10.000021
B 7.513403 -0.000889 10.000021
B 6.258281 2.170986 10.000021
B 4.997893 4.350788 10.000021
B 3.785490 6.500725 10.000021
B 2.504447 8.665486 10.000021
B 10.017712 -0.000889 10.000021
B 8.765564 2.168199 10.000021
B 7.509120 4.335834 10.000021
B 6.277653 6.508902 10.000021
B 5.011179 8.678944 10.000021
N 0.009173 1.456936 10.000021
N -1.238161 3.614453 10.000021
N -2.511253 5.780732 10.000021
N -3.756676 7.952813 10.000021
N -5.007979 10.123322 10.000021
N 2.504447 1.441027 10.000021
N 1.294505 3.623161 10.000021
N -0.026954 5.783769 10.000021
N -1.257752 7.954592 10.000021
N -2.505361 10.123322 10.000021
N 4.999721 1.456936 10.000021
N 3.714389 3.623161 10.000021
N 1.241874 7.954396 10.000021
N -0.005065 10.128408 10.000021
N 7.510830 1.447609 10.000021
N 6.247042 3.614453 10.000021
N 5.035848 5.783769 10.000021
N 3.767032 7.954396 10.000021
N 2.504447 10.119353 10.000021
N 10.020298 1.447609 10.000021
N 8.765558 3.613227 10.000021
N 7.520146 5.780732 10.000021
N 6.266646 7.954592 10.000021
N 5.013959 10.128408 10.000021
C 2.504447 4.340735 10.000021
C 2.504441 5.716359 10.000021
