50
hBN_5x5_Defecto_OB
 B   -0.003818   -0.010352    0.000000
 B   -1.262679    2.162878    0.000000
 B   -2.515321    4.339699    0.000000
 B   -3.756670    6.508982    0.000000
 B   -5.006955    8.674539    0.000000
 B    2.504447   -0.008397    0.000000
 B    1.240905    2.131342    0.000000
 B   -0.038202    4.346815    0.000000
 B   -1.259496    6.510943    0.000000
 B   -2.506385    8.674539    0.000000
 B    5.012712   -0.010352    0.000000
 B    3.767989    2.131340    0.000000
 B    1.225342    6.535332    0.000000
 B   -0.007056    8.684140    0.000000
 B    7.514656    0.000760    0.000000
 B    6.271572    2.162878    0.000000
 B    5.047096    4.346814    0.000000
 B    3.783551    6.535331    0.000000
 B    2.504447    8.687730    0.000000
 B   10.016471    0.000760    0.000000
 B    8.765564    2.167395    0.000000
 B    7.524215    4.339699    0.000000
 B    6.268390    6.510943    0.000000
 B    5.015949    8.684140    0.000000
 N   -0.017589    1.427545    0.000000
 N   -1.276953    3.608824    0.000000
 N   -2.508369    5.785287    0.000000
 N   -3.756670    7.952687    0.000000
 N   -5.009543   10.117448    0.000000
 N    2.504447    1.434054    0.000000
 N    1.114850    3.535549    0.000000
 N   -0.010298    5.789718    0.000000
 N   -1.255496    7.955326    0.000000
 N   -2.503798   10.117448    0.000000
 N    5.026483    1.427544    0.000000
 N    3.894047    3.535545    0.000000
 N    2.504446    5.942388    0.000000
 N    1.245084    7.977118    0.000000
 N    0.001795   10.122637    0.000000
 N    7.518627    1.442890    0.000000
 N    6.285847    3.608824    0.000000
 N    5.019191    5.789717    0.000000
 N    3.763809    7.977117    0.000000
 N    2.504447   10.127705    0.000000
 N   10.012500    1.442891    0.000000
 N    8.765564    3.612785    0.000000
 N    7.517262    5.785287    0.000000
 N    6.264389    7.955326    0.000000
 N    5.007098   10.122637    0.000000
 O    2.504444    4.337836    0.000000
