49
hBN_5x5_Vacancia_Boro_VB
 B   -0.000451    0.003167   10.000259
 B   -1.248886    2.170834   10.000259
 B   -2.501930    4.335855   10.000259
 B   -3.756676    6.505106   10.000259
 B   -5.010321    8.676482   10.000259
 B    2.504453    0.003763   10.000259
 B    1.266317    2.184780   10.000259
 B    0.020787    4.342102   10.000259
 B   -1.248955    6.504857   10.000259
 B   -2.503032    8.676482   10.000259
 B    5.009344    0.003167   10.000259
 B    3.742576    2.184780   10.000259
 B    1.258917    6.486605   10.000259
 B    0.002968    8.674465   10.000259
 B    7.514261    0.000531   10.000259
 B    6.257792    2.170834   10.000259
 B    4.988107    4.342102   10.000259
 B    3.749977    6.486605   10.000259
 B    2.504453    8.671808   10.000259
 B   10.016867    0.000531   10.000259
 B    8.765564    2.167852   10.000259
 B    7.510823    4.335855   10.000259
 B    6.257861    6.504857   10.000259
 B    5.005926    8.674465   10.000259
 N   -0.004921    1.440745   10.000259
 N   -1.259186    3.613195   10.000259
 N   -2.507352    5.784040   10.000259
 N   -3.756664    7.952683   10.000259
 N   -5.010121   10.118962   10.000259
 N    2.504441    1.432731   10.000259
 N    1.191390    3.579728   10.000259
 N   -0.011452    5.790384   10.000259
 N   -1.253908    7.955069   10.000259
 N   -2.503232   10.118962   10.000259
 N    5.013815    1.440745   10.000259
 N    3.817516    3.579728   10.000259
 N    2.504453    5.854020   10.000259
 N    1.250182    7.959548   10.000259
 N    0.001496   10.122465   10.000259
 N    7.515056    1.444953   10.000259
 N    6.268079    3.613195   10.000259
 N    5.020333    5.790384   10.000259
 N    3.758711    7.959548   10.000259
 N    2.504441   10.123593   10.000259
 N   10.016059    1.444953   10.000259
 N    8.765564    3.613130   10.000259
 N    7.516233    5.784040   10.000259
 N    6.262789    7.955069   10.000259
 N    5.007397   10.122465   10.000259
