49
hBN_5x5_Defecto_VBCN
 B    0.002169    0.019012    0.000000
 B   -1.260123    2.165557    0.000000
 B   -2.517798    4.339583    0.000000
 B   -3.756671    6.524027    0.000000
 B   -5.001264    8.703651    0.000000
 B    2.504447    0.037244    0.000000
 B    1.271473    2.225722    0.000000
 B   -0.032367    4.352359    0.000000
 B   -1.296642    6.524908    0.000000
 B   -2.512077    8.703651    0.000000
 B    5.006725    0.019010    0.000000
 B    3.737424    2.225715    0.000000
 B    1.179660    6.440405    0.000000
 B   -0.005713    8.663509    0.000000
 B    7.515836   -0.020096    0.000000
 B    6.269018    2.165556    0.000000
 B    5.041263    4.352357    0.000000
 B    3.829228    6.440401    0.000000
 B    2.504446    8.630372    0.000000
 B   10.015292   -0.020096    0.000000
 B    8.765564    2.154435    0.000000
 B    7.526692    4.339583    0.000000
 B    6.305533    6.524907    0.000000
 B    5.014606    8.663508    0.000000
 N    0.001344    1.469659    0.000000
 N   -1.277656    3.609587    0.000000
 N   -2.525892    5.789653    0.000000
 N   -3.756671    7.973619    0.000000
 N   -5.005248   10.147435    0.000000
 N    2.504447    1.480527    0.000000
 N    1.181091    3.649309    0.000000
 N   -0.070712    5.793645    0.000000
 N   -1.267957    7.966944    0.000000
 N   -2.508093   10.147435    0.000000
 N    5.007552    1.469655    0.000000
 N    3.827813    3.649297    0.000000
 N    1.246909    7.903326    0.000000
 N   -0.002037   10.114273    0.000000
 N    7.517580    1.426764    0.000000
 N    6.286552    3.609586    0.000000
 N    5.079602    5.793643    0.000000
 N    3.761983    7.903323    0.000000
 N    2.504447   10.081944    0.000000
 N   10.013549    1.426765    0.000000
 N    8.765564    3.604218    0.000000
 N    7.534785    5.789653    0.000000
 N    6.276850    7.966943    0.000000
 N    5.010931   10.114273    0.000000
 C    2.504439    5.645445    0.000000
