49
hBN_5x5_Defecto_Complejo_VO
 B   -0.002457   -0.009793    0.000000
 B   -1.254317    2.171867    0.000000
 B   -2.506810    4.345584    0.000000
 B   -3.756670    6.507974    0.000000
 B   -5.010535    8.669740    0.000000
 B    2.504447   -0.019141    0.000000
 B    1.261734    2.135152    0.000000
 B   -0.003266    4.360335    0.000000
 B   -1.238812    6.511576    0.000000
 B   -2.502805    8.669740    0.000000
 B    5.011351   -0.009793    0.000000
 B    3.747159    2.135152    0.000000
 B    1.279140    6.527242    0.000000
 B    0.001060    8.681088    0.000000
 B    7.513359    0.008733    0.000000
 B    6.263211    2.171867    0.000000
 B    5.012160    4.360335    0.000000
 B    3.729754    6.527242    0.000000
 B    2.504447    8.695543    0.000000
 B   10.017768    0.008733    0.000000
 B    8.765564    2.175422    0.000000
 B    7.515704    4.345584    0.000000
 B    6.247706    6.511576    0.000000
 B    5.007834    8.681088    0.000000
 N   -0.013589    1.430331    0.000000
 N   -1.263288    3.618910    0.000000
 N   -2.497507    5.790470    0.000000
 N   -3.756670    7.950395    0.000000
 N   -5.011922   10.110625    0.000000
 N    2.504447    1.417498    0.000000
 N    1.112854    3.526652    0.000000
 N    0.028083    5.802466    0.000000
 N   -1.246452    7.954101    0.000000
 N   -2.501418   10.110625    0.000000
 N    5.022483    1.430331    0.000000
 N    3.896040    3.526652    0.000000
 N    1.257920    7.967706    0.000000
 N    0.004833   10.122314    0.000000
 N    7.515666    1.451367    0.000000
 N    6.272182    3.618910    0.000000
 N    4.980810    5.802466    0.000000
 N    3.750974    7.967706    0.000000
 N    2.504447   10.134209    0.000000
 N   10.015461    1.451367    0.000000
 N    8.765564    3.621106    0.000000
 N    7.506400    5.790470    0.000000
 N    6.255346    7.954101    0.000000
 N    5.004060   10.122314    0.000000
 O    2.504447    5.866264    0.000000
