49
hBN_5x5_Defecto_VNCB
 B   -0.002655   -0.011929    0.000000
 B   -1.236063    2.187708    0.000000
 B   -2.479797    4.347188    0.000000
 B   -3.756670    6.491691    0.000000
 B   -5.022912    8.646259    0.000000
 B    2.504441   -0.043780    0.000000
 B    1.264952    2.126306    0.000000
 B    0.064239    4.349541    0.000000
 B   -1.164850    6.495238    0.000000
 B   -2.490416    8.646259    0.000000
 B    5.011548   -0.011929    0.000000
 B    3.743954    2.126306    0.000000
 B    1.461683    6.536197    0.000000
 B    0.023172    8.677426    0.000000
 B    7.508695    0.033575    0.000000
 B    6.244957    2.187708    0.000000
 B    4.944655    4.349541    0.000000
 B    3.547198    6.536197    0.000000
 B    2.504447    8.740053    0.000000
 B   10.022433    0.033575    0.000000
 B    8.765558    2.196406    0.000000
 B    7.488703    4.347188    0.000000
 B    6.173731    6.495238    0.000000
 B    4.985721    8.677426    0.000000
 N    0.005165    1.438457    0.000000
 N   -1.209635    3.634298    0.000000
 N   -2.461608    5.788616    0.000000
 N   -3.756676    7.933380    0.000000
 N   -5.016526   10.093207    0.000000
 N    2.504441    1.400045    0.000000
 N    1.305393    3.581116    0.000000
 N    0.154825    5.791110    0.000000
 N   -1.219904    7.938596    0.000000
 N   -2.496827   10.093207    0.000000
 N    5.003741    1.438457    0.000000
 N    3.703488    3.581116    0.000000
 N    1.286572    7.979372    0.000000
 N    0.008246   10.128755    0.000000
 N    7.505495    1.478321    0.000000
 N    6.218529    3.634298    0.000000
 N    4.854069    5.791110    0.000000
 N    3.722322    7.979372    0.000000
 N    2.504447   10.173380    0.000000
 N   10.025632    1.478321    0.000000
 N    8.765564    3.640219    0.000000
 N    7.470502    5.788616    0.000000
 N    6.228797    7.938596    0.000000
 N    5.000648   10.128755    0.000000
 C    2.504447    4.246171    0.000000
