49
XYZ file
 B   -0.000764   -0.019557    0.000000
 B   -1.223083    2.194475    0.000000
 B   -2.464970    4.350327    0.000000
 B   -3.756579    6.482148    0.000000
 B   -5.027302    8.628679    0.000000
 B    2.504386   -0.078338    0.000000
 B    1.274339    2.085513    0.000000
 B    0.111850    4.353433    0.000000
 B   -1.132378    6.489119    0.000000
 B   -2.485856    8.628679    0.000000
 B    5.009536   -0.019557    0.000000
 B    3.734433    2.085513    0.000000
 N    2.504386    4.222481    0.000000
 B    1.532244    6.592577    0.000000
 B    0.021490    8.691354    0.000000
 B    7.503980    0.051964    0.000000
 B    6.231855    2.194475    0.000000
 B    4.896922    4.353433    0.000000
 B    3.476528    6.592577    0.000000
 B    2.504386    8.775234    0.000000
 B   10.026722    0.051964    0.000000
 B    8.765351    2.209313    0.000000
 B    7.473742    4.350327    0.000000
 B    6.141150    6.489119    0.000000
 B    4.987282    8.691354    0.000000
 N    0.007024    1.425917    0.000000
 N   -1.179626    3.643370    0.000000
 N   -2.446498    5.787697    0.000000
 N   -3.756579    7.920940    0.000000
 N   -5.020014   10.073286    0.000000
 N    2.504386    1.356750    0.000000
 N    1.336532    3.523475    0.000000
 N    0.210529    5.799522    0.000000
 N   -1.209949    7.932661    0.000000
 N   -2.493144   10.073286    0.000000
 N    5.001748    1.425917    0.000000
 N    3.672240    3.523475    0.000000
 N    1.283937    8.016386    0.000000
 N    0.007697   10.138990    0.000000
 N    7.499872    1.495372    0.000000
 N    6.188398    3.643370    0.000000
 N    4.798243    5.799522    0.000000
 N    3.724835    8.016386    0.000000
 N    2.504386   10.202199    0.000000
 N   10.030830    1.495372    0.000000
 N    8.765351    3.650402    0.000000
 N    7.455269    5.787697    0.000000
 N    6.218721    7.932661    0.000000
 N    5.001075   10.138990    0.000000
