49
hBN_5x5_Defecto_VNOB_Relaxed
 B   -0.000631   -0.017226    0.000000
 B   -1.227096    2.191657    0.000000
 B   -2.469033    4.349474    0.000000
 B   -3.756670    6.485603    0.000000
 B   -5.025201    8.635127    0.000000
 B    2.504447   -0.067688    0.000000
 B    1.273626    2.092865    0.000000
 B    0.100489    4.351448    0.000000
 B   -1.142569    6.492396    0.000000
 B   -2.488140    8.635127    0.000000
 B    5.009524   -0.017226    0.000000
 B    3.735268    2.092865    0.000000
 B    1.504215    6.586509    0.000000
 B    0.019109    8.690458    0.000000
 B    7.505066    0.047617    0.000000
 B    6.235990    2.191657    0.000000
 B    4.908404    4.351448    0.000000
 B    3.504679    6.586509    0.000000
 B    2.504447    8.768232    0.000000
 B   10.026062    0.047617    0.000000
 B    8.765564    2.205432    0.000000
 B    7.477927    4.349474    0.000000
 B    6.151463    6.492396    0.000000
 B    4.989784    8.690458    0.000000
 N    0.002789    1.426867    0.000000
 N   -1.191039    3.639654    0.000000
 N   -2.450448    5.788938    0.000000
 N   -3.756670    7.924589    0.000000
 N   -5.019562   10.077875    0.000000
 N    2.504447    1.363527    0.000000
 N    1.280327    3.512104    0.000000
 N    0.198452    5.801716    0.000000
 N   -1.212671    7.935087    0.000000
 N   -2.493778   10.077875    0.000000
 N    5.006105    1.426867    0.000000
 N    3.728566    3.512104    0.000000
 N    1.283524    8.008787    0.000000
 N    0.008066   10.136554    0.000000
 N    7.502944    1.489623    0.000000
 N    6.199932    3.639654    0.000000
 N    4.810442    5.801716    0.000000
 N    3.725369    8.008787    0.000000
 N    2.504447   10.193815    0.000000
 N   10.028184    1.489623    0.000000
 N    8.765564    3.647810    0.000000
 N    7.459342    5.788938    0.000000
 N    6.221565    7.935087    0.000000
 N    5.000828   10.136554    0.000000
 O    2.504447    4.259881    0.000000
